certificates/rado_a11_c185_N23.drat
-21 -23 0
d -21 -17 -23 0
17 -22 -23 0
18 20 -17 0
-22 -23 0
d 17 -22 -23 0
-18 -1 -17 0
-17 21 0
-23 0
18 17 0
17 0
-15 0
-19 0
21 0
3 0
-1 0
-5 0
18 0
-8 0
-20 0
-16 0
-4 0
7 0
10 0
11 0
14 0
6 0
13 0
-9 0
-12 0
0
